c Source: TUDataset AIDS, graph #730
c Original: n=11, m=13
c Augmented: +3 edges, n=11 -> m=16, circuit_rank=6
c Augmented to satisfy Eulerian condition (no parallel edges)
p sp 11
e 2 3
e 4 5
e 1 2
e 4 8
e 3 6
e 6 10
e 2 5
e 6 9
e 8 11
e 2 4
e 7 11
e 6 11
e 3 7
e 1 3
e 4 11
e 9 10
